
Gurobi 13.0.1 (win64) logging started Mon Mar  9 17:08:46 2026

Set parameter LogFile to value "c:\users\evert\documents\tu-delft\til master\til5050-20 til design project\til_design_repo\til_design\modeling\Logs\gurobi.log"
Gurobi Optimizer version 13.0.1 build v13.0.1rc0 (win64 - Windows 11+.0 (26200.2))

CPU model: 13th Gen Intel(R) Core(TM) i7-13700H, instruction set [SSE2|AVX|AVX2]
Thread count: 14 physical cores, 20 logical processors, using up to 20 threads

Optimize a model with 2160 rows, 1920 columns and 4476 nonzeros (Max)
Model fingerprint: 0x83cc9bc0
Model has 720 linear objective coefficients
Variable types: 744 continuous, 1176 integer (1176 binary)
Coefficient statistics:
  Matrix range     [4e-01, 2e+03]
  Objective range  [1e+00, 1e+00]
  Bounds range     [1e+00, 1e+03]
  RHS range        [1e+00, 3e+03]

Found heuristic solution: objective -0.0000000
Presolve removed 2080 rows and 1877 columns
Presolve time: 0.03s
Presolved: 80 rows, 43 columns, 238 nonzeros
Found heuristic solution: objective 24.0000000
Variable types: 4 continuous, 39 integer (39 binary)

Root relaxation: objective 5.057842e+01, 45 iterations, 0.00 seconds (0.00 work units)

    Nodes    |    Current Node    |     Objective Bounds      |     Work
 Expl Unexpl |  Obj  Depth IntInf | Incumbent    BestBd   Gap | It/Node Time

     0     0   50.57842    0   33   24.00000   50.57842   111%     -    0s
H    0     0                      25.0000000   50.57842   102%     -    0s
H    0     0                      26.0000000   50.57842  94.5%     -    0s
H    0     0                      28.0000000   50.57842  80.6%     -    0s
     0     0     cutoff    0        28.00000   28.00000  0.00%     -    0s

Cutting planes:
  Learned: 132
  Gomory: 2
  Cover: 8
  MIR: 2
  RLT: 1
  BQP: 2

Explored 1 nodes (63 simplex iterations) in 0.07 seconds (0.03 work units)
Thread count was 20 (of 20 available processors)

Solution count 5: 28 26 25 ... -0

Optimal solution found (tolerance 1.00e-04)
Best objective 2.800000000000e+01, best bound 2.800000000000e+01, gap 0.0000%
Gurobi Optimizer version 13.0.1 build v13.0.1rc0 (win64 - Windows 11+.0 (26200.2))

CPU model: 13th Gen Intel(R) Core(TM) i7-13700H, instruction set [SSE2|AVX|AVX2]
Thread count: 14 physical cores, 20 logical processors, using up to 20 threads

Optimize a model with 2161 rows, 1920 columns and 5196 nonzeros (Max)
Model fingerprint: 0x905a76bb
Model has 60 linear objective coefficients
Variable types: 744 continuous, 1176 integer (1176 binary)
Coefficient statistics:
  Matrix range     [4e-01, 2e+03]
  Objective range  [1e+00, 1e+00]
  Bounds range     [1e+00, 1e+03]
  RHS range        [1e+00, 3e+03]

MIP start from previous solve produced solution with objective -0 (0.01s)
Loaded MIP start from previous solve with objective -0

Presolve removed 1631 rows and 1612 columns
Presolve time: 0.01s
Presolved: 530 rows, 308 columns, 1635 nonzeros
Variable types: 24 continuous, 284 integer (284 binary)
Found heuristic solution: objective 10.0000000

Root relaxation: objective 2.800000e+01, 242 iterations, 0.00 seconds (0.00 work units)

    Nodes    |    Current Node    |     Objective Bounds      |     Work
 Expl Unexpl |  Obj  Depth IntInf | Incumbent    BestBd   Gap | It/Node Time

     0     0   28.00000    0   53   10.00000   28.00000   180%     -    0s
     0     0   28.00000    0   42   10.00000   28.00000   180%     -    0s
     0     0   28.00000    0   89   10.00000   28.00000   180%     -    0s
H    0     0                      12.0000000   28.00000   133%     -    0s
     0     0   27.18755    0   77   12.00000   27.18755   127%     -    0s
     0     0   27.18755    0   40   12.00000   27.18755   127%     -    0s
H    0     0                      13.0000000   27.18755   109%     -    0s
     0     0   26.00000    0   40   13.00000   26.00000   100%     -    0s
     0     0   26.00000    0   40   13.00000   26.00000   100%     -    0s
H    0     2                      15.0000000   26.00000  73.3%     -    0s
     0     2   26.00000    0   40   15.00000   26.00000  73.3%     -    0s
H    8    16                      18.0000000   26.00000  44.4%   105    0s
H   34    47                      20.0000000   26.00000  30.0%  80.4    0s

Cutting planes:
  Learned: 530
  Gomory: 2
  Cover: 67
  Implied bound: 24
  Clique: 2
  MIR: 20
  RLT: 2
  Relax-and-lift: 21

Explored 383 nodes (10765 simplex iterations) in 0.24 seconds (0.25 work units)
Thread count was 20 (of 20 available processors)

Solution count 7: 20 18 15 ... -0

Optimal solution found (tolerance 1.00e-04)
Best objective 2.000000000000e+01, best bound 2.000000000000e+01, gap 0.0000%
Gurobi Optimizer version 13.0.1 build v13.0.1rc0 (win64 - Windows 11+.0 (26200.2))

CPU model: 13th Gen Intel(R) Core(TM) i7-13700H, instruction set [SSE2|AVX|AVX2]
Thread count: 14 physical cores, 20 logical processors, using up to 20 threads

Optimize a model with 2162 rows, 1920 columns and 5256 nonzeros (Min)
Model fingerprint: 0x221557c1
Model has 720 linear objective coefficients
Variable types: 744 continuous, 1176 integer (1176 binary)
Coefficient statistics:
  Matrix range     [4e-01, 2e+03]
  Objective range  [1e+00, 1e+00]
  Bounds range     [1e+00, 1e+03]
  RHS range        [1e+00, 3e+03]

MIP start from previous solve produced solution with objective 284.8 (0.00s)
MIP start from previous solve produced solution with objective 284.8 (0.01s)
Loaded MIP start from previous solve with objective 284.8

Presolve removed 1193 rows and 1388 columns
Presolve time: 0.01s
Presolved: 969 rows, 532 columns, 3278 nonzeros
Variable types: 248 continuous, 284 integer (284 binary)

Root relaxation: objective 0.000000e+00, 440 iterations, 0.00 seconds (0.01 work units)

    Nodes    |    Current Node    |     Objective Bounds      |     Work
 Expl Unexpl |  Obj  Depth IntInf | Incumbent    BestBd   Gap | It/Node Time

     0     0    0.00000    0   50  284.80000    0.00000   100%     -    0s
     0     0    0.00000    0   56  284.80000    0.00000   100%     -    0s
     0     0    0.00000    0   49  284.80000    0.00000   100%     -    0s
     0     0    0.00000    0   57  284.80000    0.00000   100%     -    0s
     0     0    0.00000    0   38  284.80000    0.00000   100%     -    0s
     0     0    0.00000    0   42  284.80000    0.00000   100%     -    0s
     0     0    0.00000    0   48  284.80000    0.00000   100%     -    0s
     0     0    0.00000    0   39  284.80000    0.00000   100%     -    0s
H    0     0                     257.6000000    0.00000   100%     -    0s
     0     0    0.00000    0   39  257.60000    0.00000   100%     -    0s
     0     0    0.00000    0   33  257.60000    0.00000   100%     -    0s
H    0     0                     247.6000000    0.00000   100%     -    0s
     0     2    0.00000    0   33  247.60000    0.00000   100%     -    0s
H  523   124                     218.0000000  100.80000  53.8%  29.9    0s
H  987   115                     217.9999998  140.80000  35.4%  20.5    0s

Cutting planes:
  Learned: 722
  Gomory: 20
  Cover: 194
  Implied bound: 1
  Clique: 13
  MIR: 97
  Flow cover: 1
  Inf proof: 8
  RLT: 18
  Relax-and-lift: 34
  BQP: 3

Explored 2106 nodes (30081 simplex iterations) in 0.67 seconds (0.74 work units)
Thread count was 20 (of 20 available processors)

Solution count 4: 218 218 247.6 284.8 

Optimal solution found (tolerance 1.00e-04)
Best objective 2.179999998366e+02, best bound 2.179999998256e+02, gap 0.0000%
